0 0 0 0
0 1 1 0
0 2 0 0
0 3 0 0
0 4 0 1
0 5 0 1
0 6 0 5
0 7 0 4
0 8 0 6
0 9 1 6
0 10 1 2
0 11 0 2
0 12 0 7
0 13 0 2
0 14 1 5
0 15 1 4
0 16 0 5
0 17 2 13
0 18 0 5
0 19 1 14
0 20 0 13
0 21 0 8
0 22 0 15
0 23 0 9
0 24 2 11
0 25 0 20
0 26 1 11
0 27 0 22
0 28 2 20
0 29 0 27
0 30 0 27
0 31 0 35
